Instance Name : c204
Date : 2022-07-21
Solution
Route 1 : 24 27 30 29 6 34 36 33 32 31 35 37 38 39 28 26 23 17 18 19 16 14 12 15 13 25 9 11 10 5 8 21 22 20
Route 2 : 93 75 2 1 99 100 97 92 94 95 98 7 3 4 89 91 90 88 84 86 83 82 85 76 71 70 73 80 79 81 78 77 87 96
Route 3 : 67 63 62 74 72 61 64 66 69 68 65 49 55 54 53 56 58 60 59 57 40 44 46 41 42 45 51 50 52 47 43 48
